! BP86 def2-SVP D3 
! FREQ
! CPCM(CH2Cl2)

%PAL NPROCS 8 END

%scf
maxiter 350
end

* xyzfile 0 1 input.xyz
