 $SYSTEM MEMDDI=400 MWORDS=200 $END
 $CONTRL DFTTYP=B3LYP RUNTYP=OPTIMIZE ICHARG=0 MULT=1 $END
 $STATPT NSTEP=1000 $END
 $BASIS GBASIS=N31 NGAUSS=6 NDFUNC=1 $END
 $DATA
Cluster/6-31G
C1
Pt        78.0    -2.872    0.147    0.175
N          7.0    -0.890    0.636    0.536
H          1.0    -0.770    1.545    1.010
H          1.0    -0.312    0.658   -0.318
H          1.0    -0.492   -0.090    1.158
N          7.0    -3.192    1.807   -1.026
H          1.0    -3.053    2.702   -0.532
H          1.0    -4.175    1.781   -1.348
H          1.0    -2.593    1.825   -1.866
Cl        17.0    -2.481   -1.719    1.540
Cl        17.0    -5.116   -0.382   -0.253
 $END
